
Gurobi 10.0.1 (linux64) logging started Tue Sep 12 17:44:07 2023

Set parameter LogFile to value "./log/esc16a/esc16a.log"
Set parameter TimeLimit to value 180
Gurobi Optimizer version 10.0.1 build v10.0.1rc0 (linux64)

CPU model: 12th Gen Intel(R) Core(TM) i5-12600KF, instruction set [SSE2|AVX|AVX2]
Thread count: 8 physical cores, 16 logical processors, using up to 16 threads

Optimize a model with 32 rows, 256 columns and 512 nonzeros
Model fingerprint: 0xba2272f2
Model has 6688 quadratic objective terms
Variable types: 0 continuous, 256 integer (256 binary)
Coefficient statistics:
  Matrix range     [1e+00, 1e+00]
  Objective range  [0e+00, 0e+00]
  QObjective range [4e+00, 4e+01]
  Bounds range     [1e+00, 1e+00]
  RHS range        [1e+00, 1e+00]
Found heuristic solution: objective 112.0000000
Presolve time: 0.05s
Presolved: 32 rows, 256 columns, 512 nonzeros
Presolved model has 6848 quadratic objective terms
Variable types: 0 continuous, 256 integer (256 binary)

Root relaxation: objective -6.047715e+02, 278 iterations, 0.01 seconds (0.01 work units)

    Nodes    |    Current Node    |     Objective Bounds      |     Work
 Expl Unexpl |  Obj  Depth IntInf | Incumbent    BestBd   Gap | It/Node Time

H    0     0                     104.0000000    0.00000   100%     -    0s
     0     0    0.00000    0  173  104.00000    0.00000   100%     -    0s
H    0     0                      86.0000000    0.00000   100%     -    0s
     0     0   12.00000    0  173   86.00000   12.00000  86.0%     -    0s
H    0     0                      80.0000000   12.00000  85.0%     -    0s
H    0     0                      74.0000000   12.00000  83.8%     -    0s
     0     0   12.00000    0   26   74.00000   12.00000  83.8%     -    0s
     0     0   12.00000    0   19   74.00000   12.00000  83.8%     -    0s
     0     0   12.00000    0   28   74.00000   12.00000  83.8%     -    0s
     0     0   14.00000    0   28   74.00000   14.00000  81.1%     -    0s
     0     0   14.00000    0   16   74.00000   14.00000  81.1%     -    0s
     0     0   14.00000    0   25   74.00000   14.00000  81.1%     -    0s
     0     0   16.92857    0   19   74.00000   16.92857  77.1%     -    0s
     0     0   18.00000    0   30   74.00000   18.00000  75.7%     -    0s
     0     0   18.00000    0   17   74.00000   18.00000  75.7%     -    0s
     0     0   18.00000    0   23   74.00000   18.00000  75.7%     -    0s
     0     0   18.00000    0   21   74.00000   18.00000  75.7%     -    0s
     0     0   18.00000    0   24   74.00000   18.00000  75.7%     -    0s
     0     0   20.00000    0   25   74.00000   20.00000  73.0%     -    0s
     0     0   20.00000    0   18   74.00000   20.00000  73.0%     -    0s
     0     2   20.00000    0   18   74.00000   20.00000  73.0%     -    0s
H  574   456                      72.0000000   20.00000  72.2%   8.5    0s
H 1842  1263                      70.0000000   21.77778  68.9%   8.9    0s
* 7212  2699              33      68.0000000   37.77778  44.4%   7.8    1s

Cutting planes:
  Gomory: 2
  MIR: 12

Explored 29552 nodes (226355 simplex iterations) in 2.12 seconds (3.13 work units)
Thread count was 16 (of 16 available processors)

Solution count 8: 68 70 72 ... 112

Optimal solution found (tolerance 1.00e-04)
Best objective 6.800000000000e+01, best bound 6.800000000000e+01, gap 0.0000%
